(declare-fun v0 () (_ BitVec 20))
(declare-fun v1 () (_ BitVec 3))
(declare-fun v2 () (_ BitVec 24))
(declare-fun v3 () (_ BitVec 32))
(declare-fun v4 () (_ BitVec 29))
(declare-fun v5 () (_ BitVec 7))
(declare-fun v6 () (_ BitVec 6))
(declare-fun v7 () (_ BitVec 32))
(declare-fun v8 () (_ BitVec 22))
(declare-fun v9 () (_ BitVec 9))
(declare-fun v10 () (_ BitVec 24))
(declare-fun v11 () (_ BitVec 2))
(declare-fun v12 () (_ BitVec 31))
(declare-fun v13 () (_ BitVec 4))
(declare-fun v14 () (_ BitVec 7))
(assert (let ((e15 (_ bv22817 17))) (let ((e16 (ite (bvsge v8 ((_ zero_extend 5) e15)) (_ bv1 1) (_ bv0 1)))) (let ((e17 ((_ zero_extend 3) v2))) (let ((e18 (ite (= (_ bv1 1) ((_ extract 3 3) v13)) ((_ zero_extend 21) v1) v10))) (let ((e19 (ite (distinct ((_ zero_extend 1) v1) v13) (_ bv1 1) (_ bv0 1)))) (let ((e20 (bvand ((_ zero_extend 10) v8) v3))) (let ((e21 (ite (= ((_ sign_extend 9) v8) v12) (_ bv1 1) (_ bv0 1)))) (let ((e22 (bvxor v11 ((_ zero_extend 1) e19)))) (let ((e23 (ite (= v6 ((_ sign_extend 4) e22)) (_ bv1 1) (_ bv0 1)))) (let ((e24 (bvand ((_ sign_extend 4) e17) v12))) (let ((e25 (ite (bvuge ((_ sign_extend 3) v6) v9) (_ bv1 1) (_ bv0 1)))) (let ((e26 (bvcomp v4 ((_ sign_extend 28) e19)))) (let ((e27 (bvxnor ((_ zero_extend 31) e19) v7))) (let ((e28 (ite (bvsle (_ bv0 7) ((_ sign_extend 6) e16)) (_ bv1 1) (_ bv0 1)))) (let ((e29 ((_ rotate_left 4) v6))) (let ((e30 (_ bv0 7))) (let ((e31 (_ bv0 32))) (let ((e32 ((_ sign_extend 0) e31))) (let ((e33 (ite (bvsge ((_ zero_extend 7) e22) v9) (_ bv1 1) (_ bv0 1)))) (let ((e34 (ite (bvsge ((_ zero_extend 20) e22) v8) (_ bv1 1) (_ bv0 1)))) (let ((e35 (bvcomp ((_ sign_extend 20) v13) v10))) (let ((e36 (ite (bvsgt v7 v7) (_ bv1 1) (_ bv0 1)))) (let ((e37 (bvadd (_ bv0 7) ((_ sign_extend 5) v11)))) (let ((e38 (bvurem ((_ sign_extend 25) e29) v12))) (let ((e39 (ite (bvslt v1 ((_ sign_extend 2) e23)) (_ bv1 1) (_ bv0 1)))) (let ((e40 (bvadd ((_ sign_extend 8) e23) v9))) (let ((e41 (ite (bvslt e31 ((_ zero_extend 25) e30)) (_ bv1 1) (_ bv0 1)))) (let ((e42 (bvcomp e19 e34))) (let ((e43 (_ bv0 1))) (let ((e44 (_ bv0 32))) (let ((e45 (bvshl (_ bv0 9) e40))) (let ((e46 ((_ extract 7 6) e40))) (let ((e47 (ite (= ((_ sign_extend 31) (_ bv0 1)) e32) (_ bv1 1) (_ bv0 1)))) (let ((e48 (bvurem v1 v1))) (let ((e49 (bvxor e30 ((_ zero_extend 3) v13)))) (let ((e50 ((_ rotate_left 2) v9))) (let ((e51 ((_ repeat 4) v5))) (let ((e52 ((_ rotate_left 5) e17))) (let ((e53 (ite (bvugt v10 ((_ zero_extend 18) v6)) (_ bv1 1) (_ bv0 1)))) (let ((e54 (ite (= (_ bv1 1) ((_ extract 0 0) e36)) v9 ((_ sign_extend 8) e23)))) (let ((e55 (bvsdiv ((_ zero_extend 5) (_ bv0 1)) v6))) (let ((e56 (bvmul e37 ((_ zero_extend 6) e16)))) (let ((e57 (bvor ((_ zero_extend 18) e50) e17))) (let ((e58 ((_ rotate_left 12) e24))) (let ((e59 ((_ rotate_left 0) e21))) (let ((e60 (ite (bvsle ((_ zero_extend 1) (_ bv0 1)) v11) (_ bv1 1) (_ bv0 1)))) (let ((e61 (bvsub e46 ((_ sign_extend 1) e23)))) (let ((e62 (bvor ((_ zero_extend 31) e25) v7))) (let ((e63 (ite (bvugt (_ bv0 27) ((_ sign_extend 26) e36)) (_ bv1 1) (_ bv0 1)))) (let ((e64 (bvsrem ((_ zero_extend 23) (_ bv0 1)) e18))) (let ((e65 (bvnot e22))) (let ((e66 (bvnand v4 ((_ zero_extend 28) e59)))) (let ((e67 ((_ zero_extend 11) e61))) (let ((e68 (bvashr v3 ((_ zero_extend 28) v13)))) (let ((e69 (ite (bvugt v5 ((_ zero_extend 6) e25)) (_ bv1 1) (_ bv0 1)))) (let ((e70 (bvurem ((_ sign_extend 30) (_ bv0 1)) e38))) (let ((e71 (ite (= (_ bv1 1) ((_ extract 1 1) e50)) e39 e69))) (let ((e72 (_ bv0 4))) (let ((e73 (_ bv0 1))) (let ((e74 (_ bv0 31))) (let ((e75 (_ bv0 1))) (let ((e76 (_ bv0 1))) (let ((e77 (_ bv0 27))) (let ((e78 (_ bv0 1))) (let ((e79 (_ bv0 31))) (let ((e80 (ite (bvsle ((_ zero_extend 6) e28) (_ bv0 7)) (_ bv1 1) (_ bv0 1)))) (let ((e81 (bvnand v8 ((_ zero_extend 18) v13)))) (let ((e82 (bvneg v6))) (let ((e83 (ite (bvult e82 ((_ sign_extend 5) e35)) (_ bv1 1) (_ bv0 1)))) (let ((e84 (bvxor e52 ((_ sign_extend 26) e47)))) (let ((e85 (bvxor v2 ((_ sign_extend 23) e33)))) (let ((e86 (_ bv0 1))) (let ((e87 (_ bv0 1))) (let ((e88 (_ bv0 24))) (let ((e89 (_ bv0 27))) (let ((e90 (_ bv0 27))) (let ((e91 (_ bv0 32))) (let ((e92 (_ bv0 1))) (let ((e93 (_ bv0 8))) (let ((e94 (_ bv0 14))) (let ((e95 (_ bv0 7))) (let ((e96 (_ bv0 1))) (let ((e97 (ite (bvule e35 (_ bv0 1)) (_ bv1 1) (_ bv0 1)))) (let ((e98 (bvand e83 e80))) (let ((e99 (ite (bvsgt ((_ sign_extend 7) e28) (_ bv0 8)) (_ bv1 1) (_ bv0 1)))) (let ((e100 (concat e99 e35))) (let ((e101 (ite (bvult ((_ zero_extend 18) e94) e31) (_ bv1 1) (_ bv0 1)))) (let ((e102 ((_ rotate_right 0) e96))) (let ((e103 (bvudiv ((_ sign_extend 5) e98) v6))) (let ((e104 (_ bv0 6))) (let ((e105 (_ bv0 31))) (let ((e106 (_ bv0 8))) (let ((e107 (_ bv0 6))) (let ((e108 (_ bv0 1))) (let ((e109 (_ bv0 9))) (let ((e110 (_ bv0 1))) (let ((e111 (_ bv0 3))) (let ((e112 (_ bv0 1))) (let ((e113 (_ bv0 1))) (let ((e114 (_ bv0 1))) (let ((e115 (_ bv0 3))) (let ((e116 (_ bv0 32))) (let ((e117 (_ bv0 1))) (let ((e118 (_ bv0 32))) (let ((e119 (_ bv0 6))) (let ((e120 (_ bv0 1))) (let ((e121 (_ bv0 7))) (let ((e122 (_ bv0 31))) (let ((e123 (_ bv0 1))) (let ((e124 (_ bv0 1))) (let ((e125 (_ bv0 1))) (let ((e126 (_ bv0 1))) (let ((e127 (_ bv0 24))) (let ((e128 (_ bv0 1))) (let ((e129 (_ bv0 29))) (let ((e130 (_ bv0 1))) (let ((e131 (_ bv0 20))) (let ((e132 (bvsgt (_ bv0 27) (_ bv0 27)))) (let ((e133 (bvsge e38 (_ bv0 31)))) (let ((e134 (bvsge (_ bv0 22) e81))) (let ((e135 (= (_ bv0 28) e51))) (let ((e136 (= e69 e63))) (let ((e137 (bvugt (_ bv0 32) e32))) (let ((e138 (= (_ bv0 29) (_ bv0 29)))) (let ((e139 (distinct e122 (_ bv0 31)))) (let ((e140 (distinct (_ bv0 4) v13))) (let ((e141 (bvuge (_ bv0 32) (_ bv0 32)))) (let ((e142 (bvugt e56 (_ bv0 7)))) (let ((e143 (bvuge (_ bv0 32) (_ bv0 32)))) (let ((e144 (bvuge e35 e117))) (let ((e145 (bvsle e73 e101))) (let ((e146 (distinct e118 (_ bv0 32)))) (let ((e147 (distinct (_ bv0 32) e62))) (let ((e148 (bvule (_ bv0 24) (_ bv0 24)))) (let ((e149 (bvsle (_ bv0 24) (_ bv0 24)))) (let ((e150 (bvugt v3 e31))) (let ((e151 (bvslt e34 e75))) (let ((e152 (bvugt v8 (_ bv0 22)))) (let ((e153 (= e84 (_ bv0 27)))) (let ((e154 (bvult (_ bv0 31) e58))) (let ((e155 (bvule e118 (_ bv0 32)))) (let ((e156 (bvsge (_ bv0 31) e70))) (let ((e157 (bvsle e105 (_ bv0 31)))) (let ((e158 (bvule (_ bv0 1) e75))) (let ((e159 (bvsge (_ bv0 27) e17))) (let ((e160 (bvugt (_ bv0 27) (_ bv0 27)))) (let ((e161 (bvuge (_ bv0 32) e31))) (let ((e162 (bvugt (_ bv0 17) e15))) (let ((e163 (bvsge e20 (_ bv0 32)))) (let ((e164 (bvsle e49 (_ bv0 7)))) (let ((e165 (bvsle (_ bv0 24) (_ bv0 24)))) (let ((e166 (bvuge (_ bv0 31) e24))) (let ((e167 (bvult e54 (_ bv0 9)))) (let ((e168 (= e58 e58))) (let ((e169 (bvsgt e95 (_ bv0 7)))) (let ((e170 (bvugt e32 (_ bv0 32)))) (let ((e171 (bvule (_ bv0 22) e81))) (let ((e172 (bvslt e110 (_ bv0 1)))) (let ((e173 (bvsge v13 (_ bv0 4)))) (let ((e174 (bvult v5 (_ bv0 7)))) (let ((e175 (bvsle (_ bv0 32) e68))) (let ((e176 (bvugt (_ bv0 27) (_ bv0 27)))) (let ((e177 (bvsle (_ bv0 27) e17))) (let ((e178 (bvuge (_ bv0 32) e62))) (let ((e179 (bvult (_ bv0 1) (_ bv0 1)))) (let ((e180 (bvult e60 (_ bv0 1)))) (let ((e181 (bvsle e50 (_ bv0 9)))) (let ((e182 (bvule (_ bv0 32) (_ bv0 32)))) (let ((e183 (distinct (_ bv0 32) (_ bv0 32)))) (let ((e184 (bvult e24 (_ bv0 31)))) (let ((e185 (= (_ bv0 1) e86))) (let ((e186 (bvslt e40 (_ bv0 9)))) (let ((e187 (bvult v4 (_ bv0 29)))) (let ((e188 (distinct (_ bv0 1) e101))) (let ((e189 (bvsge e116 (_ bv0 32)))) (let ((e190 (bvslt v4 (_ bv0 29)))) (let ((e191 (distinct e47 e120))) (let ((e192 (bvsgt e37 (_ bv0 7)))) (let ((e193 (bvule e101 e63))) (let ((e194 (= e23 e110))) (let ((e195 (bvugt e94 (_ bv0 14)))) (let ((e196 (bvsge (_ bv0 3) v1))) (let ((e197 (distinct (_ bv0 32) (_ bv0 32)))) (let ((e198 (bvugt (_ bv0 20) (_ bv0 20)))) (let ((e199 (bvsgt e19 e97))) (let ((e200 (bvsgt (_ bv0 24) v10))) (let ((e201 (bvsge e85 v2))) (let ((e202 (bvsle (_ bv0 29) (_ bv0 29)))) (let ((e203 (bvsle (_ bv0 32) e20))) (let ((e204 (= e96 e60))) (let ((e205 (bvslt (_ bv0 32) e62))) (let ((e206 (bvult (_ bv0 32) e62))) (let ((e207 (bvule (_ bv0 32) (_ bv0 32)))) (let ((e208 (bvslt e78 e117))) (let ((e209 (bvult e84 (_ bv0 27)))) (let ((e210 (bvsge v8 (_ bv0 22)))) (let ((e211 (bvsle e46 (_ bv0 2)))) (let ((e212 (bvule (_ bv0 32) e68))) (let ((e213 (bvule (_ bv0 22) e81))) (let ((e214 (bvslt e62 (_ bv0 32)))) (let ((e215 (bvsle v9 (_ bv0 9)))) (let ((e216 (bvslt e18 (_ bv0 24)))) (let ((e217 (distinct (_ bv0 20) e131))) (let ((e218 (bvsge (_ bv0 1) (_ bv0 1)))) (let ((e219 (bvugt (_ bv0 20) (_ bv0 20)))) (let ((e220 (bvslt (_ bv0 6) e119))) (let ((e221 (bvule e48 (_ bv0 3)))) (let ((e222 (bvsgt e86 (_ bv0 1)))) (let ((e223 (bvuge (_ bv0 24) (_ bv0 24)))) (let ((e224 (bvugt e56 (_ bv0 7)))) (let ((e225 (bvugt e17 (_ bv0 27)))) (let ((e226 (bvsle (_ bv0 27) e77))) (let ((e227 (bvugt (_ bv0 31) e74))) (let ((e228 (bvuge e49 e95))) (let ((e229 (bvslt e94 (_ bv0 14)))) (let ((e230 (bvsle (_ bv0 17) e15))) (let ((e231 (= v1 (_ bv0 3)))) (let ((e232 (bvsle e23 e99))) (let ((e233 (bvslt e49 (_ bv0 7)))) (let ((e234 (bvule e53 e99))) (let ((e235 (bvult (_ bv0 24) (_ bv0 24)))) (let ((e236 (bvule e75 e97))) (let ((e237 (bvsge e58 (_ bv0 31)))) (let ((e238 (bvult (_ bv0 20) (_ bv0 20)))) (let ((e239 (bvsle v9 (_ bv0 9)))) (let ((e240 (bvuge v2 (_ bv0 24)))) (let ((e241 (bvsge e79 (_ bv0 31)))) (let ((e242 (= (_ bv0 27) (_ bv0 27)))) (let ((e243 (distinct (_ bv0 1) (_ bv0 1)))) (let ((e244 (bvule (_ bv0 27) e84))) (let ((e245 (distinct (_ bv0 29) (_ bv0 29)))) (let ((e246 (bvuge e115 (_ bv0 3)))) (let ((e247 (bvsle (_ bv0 9) (_ bv0 9)))) (let ((e248 (bvugt (_ bv0 32) (_ bv0 32)))) (let ((e249 (bvule (_ bv0 31) v12))) (let ((e250 (bvsgt e40 (_ bv0 9)))) (let ((e251 (bvugt e47 e19))) (let ((e252 (bvsle e48 (_ bv0 3)))) (let ((e253 (bvule e32 (_ bv0 32)))) (let ((e254 (bvuge e105 (_ bv0 31)))) (let ((e255 (bvule e49 (_ bv0 7)))) (let ((e256 (bvsle e103 (_ bv0 6)))) (let ((e257 (bvuge v4 (_ bv0 29)))) (let ((e258 (bvule (_ bv0 14) e94))) (let ((e259 (bvsgt v6 e55))) (let ((e260 (bvsge (_ bv0 27) ((_ zero_extend 26) e117)))) (let ((e261 (bvslt (_ bv0 22) v8))) (let ((e262 (bvslt e32 (_ bv0 32)))) (let ((e263 (bvugt e40 (_ bv0 9)))) (let ((e264 (bvult (_ bv0 9) (_ bv0 9)))) (let ((e265 (bvsgt v12 (_ bv0 31)))) (let ((e266 (bvslt e118 (_ bv0 32)))) (let ((e267 (bvult (_ bv0 28) e51))) (let ((e268 (= (_ bv0 27) ((_ sign_extend 26) e108)))) (let ((e269 (bvsle (_ bv0 27) ((_ sign_extend 26) e73)))) (let ((e270 (bvugt e102 e53))) (let ((e271 (bvule ((_ sign_extend 4) e131) e18))) (let ((e272 (distinct e38 e74))) (let ((e273 (bvsgt e121 e121))) (let ((e274 (bvuge e122 e24))) (let ((e275 (bvsgt e48 ((_ sign_extend 2) e99)))) (let ((e276 (distinct e20 ((_ sign_extend 30) e100)))) (let ((e277 (bvsge ((_ sign_extend 26) e113) e17))) (let ((e278 (bvule ((_ zero_extend 5) e48) e106))) (let ((e279 (bvsgt e70 ((_ zero_extend 30) e71)))) (let ((e280 (= e17 ((_ sign_extend 14) e67)))) (let ((e281 (bvsge e68 (_ bv0 32)))) (let ((e282 (bvugt (_ bv0 28) e51))) (let ((e283 (= (_ bv0 32) e116))) (let ((e284 (bvugt e74 (_ bv0 31)))) (let ((e285 (= (_ bv0 9) e40))) (let ((e286 (bvugt (_ bv0 27) ((_ sign_extend 24) e115)))) (let ((e287 (bvslt v7 ((_ sign_extend 30) e61)))) (let ((e288 (bvsle ((_ zero_extend 30) e102) e79))) (let ((e289 (bvult e20 ((_ zero_extend 26) e104)))) (let ((e290 (bvsle ((_ sign_extend 8) e119) e94))) (let ((e291 (bvsgt ((_ sign_extend 23) e80) (_ bv0 24)))) (let ((e292 (bvuge e103 ((_ sign_extend 5) e117)))) (let ((e293 (= ((_ sign_extend 8) e18) (_ bv0 32)))) (let ((e294 (bvsgt ((_ zero_extend 1) (_ bv0 1)) e61))) (let ((e295 (bvsgt e38 ((_ zero_extend 24) e49)))) (let ((e296 (bvule e94 ((_ sign_extend 7) e56)))) (let ((e297 (bvule ((_ zero_extend 8) (_ bv0 1)) e50))) (let ((e298 (bvult (_ bv0 32) ((_ sign_extend 31) (_ bv0 1))))) (let ((e299 (bvuge (_ bv0 2) e22))) (let ((e300 (bvult e109 ((_ zero_extend 8) e69)))) (let ((e301 (bvslt e38 (_ bv0 31)))) (let ((e302 (= e110 e75))) (let ((e303 (bvsge (_ bv0 32) e116))) (let ((e304 (= (_ bv0 31) v12))) (let ((e305 (bvslt (_ bv0 1) e25))) (let ((e306 (bvsgt e95 (_ bv0 7)))) (let ((e307 (bvsge ((_ sign_extend 8) e59) e109))) (let ((e308 (bvule e70 ((_ sign_extend 30) (_ bv0 1))))) (let ((e309 (bvsle ((_ sign_extend 25) e30) (_ bv0 32)))) (let ((e310 (= e15 ((_ zero_extend 16) e117)))) (let ((e311 (bvslt ((_ zero_extend 18) e82) (_ bv0 24)))) (let ((e312 (bvugt e114 (_ bv0 1)))) (let ((e313 (bvsgt (_ bv0 1) (_ bv0 1)))) (let ((e314 (bvsgt (_ bv0 1) e112))) (let ((e315 (distinct (_ bv0 29) (_ bv0 29)))) (let ((e316 (bvslt (_ bv0 31) e70))) (let ((e317 (bvsle (_ bv0 6) e107))) (let ((e318 (bvuge (_ bv0 32) v7))) (let ((e319 (bvsgt (_ bv0 24) e18))) (let ((e320 (bvuge e48 (_ bv0 3)))) (let ((e321 (bvsle (_ bv0 24) e18))) (let ((e322 (bvsgt e122 (_ bv0 31)))) (let ((e323 (bvsgt ((_ sign_extend 5) e77) (_ bv0 32)))) (let ((e324 (bvsgt ((_ sign_extend 2) (_ bv0 20)) e81))) (let ((e325 (distinct e68 ((_ sign_extend 31) e98)))) (let ((e326 (bvslt ((_ zero_extend 1) e55) e30))) (let ((e327 (bvugt e62 ((_ zero_extend 31) e76)))) (let ((e328 (= e53 e60))) (let ((e329 (bvugt ((_ sign_extend 7) e15) (_ bv0 24)))) (let ((e330 (bvult (_ bv0 29) ((_ sign_extend 5) v10)))) (let ((e331 (bvsge v9 ((_ sign_extend 8) e59)))) (let ((e332 (bvsle ((_ zero_extend 23) e54) e116))) (let ((e333 (= e32 ((_ zero_extend 5) (_ bv0 27))))) (let ((e334 (= ((_ zero_extend 18) e119) (_ bv0 24)))) (let ((e335 (bvsle e20 ((_ zero_extend 31) (_ bv0 1))))) (let ((e336 (distinct (_ bv0 31) e58))) (let ((e337 (= e74 (_ bv0 31)))) (let ((e338 (bvuge ((_ sign_extend 8) e18) e32))) (let ((e339 (bvsge ((_ sign_extend 29) e22) e122))) (let ((e340 (bvult ((_ zero_extend 2) e19) e115))) (let ((e341 (bvsge e95 ((_ sign_extend 6) e80)))) (let ((e342 (bvult v7 ((_ zero_extend 31) (_ bv0 1))))) (let ((e343 (bvsle e24 ((_ zero_extend 30) e69)))) (let ((e344 (bvule ((_ zero_extend 2) e17) v4))) (let ((e345 (bvugt e31 ((_ zero_extend 23) e40)))) (let ((e346 (bvsge ((_ sign_extend 3) e60) e72))) (let ((e347 (bvult e22 ((_ zero_extend 1) (_ bv0 1))))) (let ((e348 (bvsge e111 ((_ sign_extend 2) (_ bv0 1))))) (let ((e349 (bvsle e76 e76))) (let ((e350 (bvuge (_ bv0 1) e47))) (let ((e351 (= v5 ((_ zero_extend 3) e72)))) (let ((e352 (bvule ((_ zero_extend 8) e85) (_ bv0 32)))) (let ((e353 (bvsle v3 ((_ zero_extend 26) e107)))) (let ((e354 (bvule (_ bv0 32) v7))) (let ((e355 (bvslt (_ bv0 2) (_ bv0 2)))) (let ((e356 (bvslt e112 e80))) (let ((e357 (bvsle ((_ zero_extend 4) e84) e70))) (let ((e358 (bvult e51 ((_ sign_extend 27) e83)))) (let ((e359 (bvugt ((_ sign_extend 1) e122) v7))) (let ((e360 (= e32 ((_ zero_extend 31) e80)))) (let ((e361 (bvugt e52 ((_ zero_extend 20) e121)))) (let ((e362 (distinct e67 ((_ zero_extend 12) e60)))) (let ((e363 (bvsle ((_ zero_extend 18) e94) e68))) (let ((e364 (bvule ((_ sign_extend 23) e35) v2))) (let ((e365 (bvult ((_ zero_extend 17) v1) (_ bv0 20)))) (let ((e366 (bvugt e73 e39))) (let ((e367 (bvult ((_ zero_extend 2) e112) e48))) (let ((e368 (bvsle e20 ((_ zero_extend 31) e23)))) (let ((e369 (= ((_ zero_extend 1) e96) e22))) (let ((e370 (bvuge e62 ((_ sign_extend 31) e96)))) (let ((e371 (bvult e85 ((_ sign_extend 17) e121)))) (let ((e372 (bvsge e67 ((_ sign_extend 5) e106)))) (let ((e373 (distinct (_ bv0 29) ((_ sign_extend 20) e54)))) (let ((e374 (bvslt ((_ zero_extend 1) e47) (_ bv0 2)))) (let ((e375 (bvult ((_ zero_extend 21) v6) (_ bv0 27)))) (let ((e376 (bvuge ((_ sign_extend 3) e104) e50))) (let ((e377 (bvslt ((_ sign_extend 1) (_ bv0 1)) e61))) (let ((e378 (distinct e119 ((_ sign_extend 5) e102)))) (let ((e379 (bvult ((_ zero_extend 6) e36) e37))) (let ((e380 (distinct ((_ sign_extend 28) e83) (_ bv0 29)))) (let ((e381 (bvsle e59 e112))) (let ((e382 (= e105 ((_ sign_extend 30) e36)))) (let ((e383 (distinct ((_ zero_extend 16) e59) e15))) (let ((e384 (bvugt ((_ sign_extend 4) (_ bv0 20)) e85))) (let ((e385 (bvsge ((_ sign_extend 24) v1) e52))) (let ((e386 (bvult e24 ((_ sign_extend 30) e23)))) (let ((e387 (bvult e97 e28))) (let ((e388 (bvule e118 ((_ zero_extend 3) v4)))) (let ((e389 (= (_ bv0 32) ((_ sign_extend 30) e22)))) (let ((e390 (bvslt (_ bv0 27) e77))) (let ((e391 (distinct v3 (_ bv0 32)))) (let ((e392 (= (_ bv0 27) (_ bv0 27)))) (let ((e393 (bvsgt e105 (_ bv0 31)))) (let ((e394 (bvsge ((_ zero_extend 5) (_ bv0 1)) e82))) (let ((e395 (bvsge (_ bv0 1) e69))) (let ((e396 (bvsgt e22 ((_ sign_extend 1) e73)))) (let ((e397 (bvsgt ((_ zero_extend 13) e76) e94))) (let ((e398 (bvuge e95 ((_ zero_extend 6) e35)))) (let ((e399 (bvsle (_ bv0 1) e99))) (let ((e400 (bvsle e24 ((_ sign_extend 9) e81)))) (let ((e401 (bvuge ((_ zero_extend 30) e78) e74))) (let ((e402 (bvugt e58 e74))) (let ((e403 (bvslt (_ bv0 24) ((_ zero_extend 17) e49)))) (let ((e404 (bvsge ((_ sign_extend 21) e19) e81))) (let ((e405 (bvsge e21 (_ bv0 1)))) (let ((e406 (= ((_ sign_extend 15) e40) (_ bv0 24)))) (let ((e407 (bvsge e16 e59))) (let ((e408 (bvsgt ((_ sign_extend 28) e60) (_ bv0 29)))) (let ((e409 (bvslt (_ bv0 24) ((_ zero_extend 20) e72)))) (let ((e410 (bvult ((_ zero_extend 6) e80) e49))) (let ((e411 (bvule v6 ((_ sign_extend 5) (_ bv0 1))))) (let ((e412 (bvsgt ((_ zero_extend 11) e67) (_ bv0 24)))) (let ((e413 (bvsgt e52 ((_ zero_extend 18) (_ bv0 9))))) (let ((e414 (bvuge ((_ sign_extend 27) e113) e51))) (let ((e415 (distinct (_ bv0 24) ((_ zero_extend 23) (_ bv0 1))))) (let ((e416 (bvsgt ((_ sign_extend 31) (_ bv0 1)) e68))) (let ((e417 (bvsge e85 ((_ zero_extend 15) v9)))) (let ((e418 (bvuge e122 ((_ zero_extend 2) (_ bv0 29))))) (let ((e419 (bvuge ((_ zero_extend 19) (_ bv0 1)) e131))) (let ((e420 (bvule e97 e96))) (let ((e421 (bvsle (_ bv0 31) e79))) (let ((e422 (bvsle (_ bv0 24) v2))) (let ((e423 (bvslt (_ bv0 31) e122))) (let ((e424 (bvuge (_ bv0 17) e15))) (let ((e425 (bvugt (_ bv0 29) (_ bv0 29)))) (let ((e426 (bvule e118 (_ bv0 32)))) (let ((e427 (bvuge (_ bv0 6) e103))) (let ((e428 (bvsle (_ bv0 1) e23))) (let ((e429 (bvuge e109 (_ bv0 9)))) (let ((e430 (bvsle ((_ zero_extend 2) e19) e115))) (let ((e431 (distinct ((_ zero_extend 20) e106) e51))) (let ((e432 (bvugt e97 e96))) (let ((e433 (bvult ((_ sign_extend 21) (_ bv0 1)) e81))) (let ((e434 (bvult v8 ((_ zero_extend 21) e19)))) (let ((e435 (distinct e34 e36))) (let ((e436 (bvugt ((_ sign_extend 1) e99) v11))) (let ((e437 (bvslt e62 (_ bv0 32)))) (let ((e438 (distinct e120 (_ bv0 1)))) (let ((e439 (bvugt (_ bv0 1) (_ bv0 1)))) (let ((e440 (distinct v3 (_ bv0 32)))) (let ((e441 (bvslt e50 (_ bv0 9)))) (let ((e442 (bvsgt (_ bv0 24) (_ bv0 24)))) (let ((e443 (bvslt (_ bv0 2) e46))) (let ((e444 (bvslt (_ bv0 1) e71))) (let ((e445 (bvslt e34 e36))) (let ((e446 (bvsgt e82 ((_ zero_extend 5) e47)))) (let ((e447 (bvuge ((_ zero_extend 2) e35) v1))) (let ((e448 (bvsle ((_ zero_extend 31) e25) v7))) (let ((e449 (bvult (_ bv0 1) e113))) (let ((e450 (bvsgt ((_ zero_extend 26) e119) e116))) (let ((e451 (bvult e116 ((_ sign_extend 31) e36)))) (let ((e452 (bvsle e63 e99))) (let ((e453 (bvule (_ bv0 29) ((_ sign_extend 20) (_ bv0 9))))) (let ((e454 (bvsge ((_ sign_extend 5) e36) v6))) (let ((e455 (bvsle ((_ zero_extend 25) v1) e51))) (let ((e456 (bvuge ((_ zero_extend 7) e19) (_ bv0 8)))) (let ((e457 (bvule (_ bv0 6) e29))) (let ((e458 (or e132 e133 e134 e135 e136 e137 e138 e139 e140 e141 e142 e143 e144 e145 e146 e147 e148 e149 e150 e151 e152 e153 e154 e155 e156 e157 e158 e159 e160 e161 e162 e163 e164 e165 e166 e167 e168 e169 e170 e171 e172 e173 e174 e175 e176 e177 e178 e179 e180 e181 e182 e183 e184 e185 e186 e187 e188 e189 e190 e191 e192 e193 e194 e195 e196 e197 e198 e199 e200 e201 e202 e203 e204 e205 e206 e207 e208 e209 e210 e211 e212 e213 e214 e215 e216 e217 e218 e219 e220 e221 e222 e223 e224 e225 e226 e227 e228 e229 e230 e231 e232 e233 e234 e235 e236 e237 e238 e239 e240 e241 e242 e243 e244 e245 e246 e247 e248 e249 e250 e251 e252 e253 e254 e255 e256 e257 e258 e259 e260 e261 e262 e263 e264 e265 e266 e267 e268 e269 e270 e271 e272 e273 e274 e275 e276 e277 e278 e279 e280 e281 e282 e283 e284 e285 e286 e287 e288 e289 e290 e291 e292 e293 e294 e295 e296 e297 e298 e299 e300 e301 e302 e303 e304 e305 e306 e307 e308 e309 e310 e311 e312 e313 e314 e315 e316 e317 e318 e319 e320 e321 e322 e323 e324 e325 e326 e327 e328 e329 e330 e331 e332 e333 e334 e335 e336 e337 e338 e339 e340 e341 e342 e343 e344 e345 e346 e347 e348 e349 e350 e351 e352 e353 e354 e355 e356 e357 e358 e359 e360 e361 e362 e363 e364 e365 e366 e367 e368 e369 e370 e371 e372 e373 e374 e375 e376 e377 e378 e379 e380 e381 e382 e383 e384 e385 e386 e387 e388 e389 e390 e391 e392 e393 e394 e395 e396 e397 e398 e399 e400 e401 e402 e403 e404 e405 e406 e407 e408 e409 e410 e411 e412 e413 e414 e415 e416 e417 e418 e419 e420 e421 e422 e423 e424 e425 e426 e427 e428 e429 e430 e431 e432 e433 e434 e435 e436 e437 e438 e439 e440 e441 e442 e443 e444 e445 e446 e447 e448 e449 e450 e451 e452 e453 e454 e455 e456 e457))) (let ((e459 (and e458 (not (= v1 (_ bv0 3)))))) (let ((e460 (and e459 (not (= v12 (_ bv0 31)))))) (let ((e461 (and e460 (not (= e103 (_ bv0 6)))))) (let ((e462 (and e461 (not (= e103 (bvnot (_ bv0 6))))))) (let ((e463 (and e462 (not (= e58 (_ bv0 31)))))) (let ((e464 (and e463 (not (= e68 (_ bv0 32)))))) (let ((e465 (and e464 (not (= e68 (bvnot (_ bv0 32))))))) (let ((e466 (and e465 (not (= v6 (_ bv0 6)))))) (let ((e467 (and e466 (not (= v6 (bvnot (_ bv0 6))))))) (let ((e468 (and e467 (not (= e62 (_ bv0 32)))))) (let ((e469 (and e468 (not (= e62 (bvnot (_ bv0 32))))))) (let ((e470 (and e469 (not (= e18 (_ bv0 24)))))) (let ((e471 (and e470 (not (= e18 (_ bv0 24)))))) (let ((e472 (and e471 (not (= e69 (_ bv0 1)))))) (let ((e473 (and e472 (not (= e38 (_ bv0 31)))))) e473))))))))))))))))))))))))))))))))))))))))))))))))))))))))))))))))))))))))))))))))))))))))))))))))))))))))))))))))))))))))))))))))))))))))))))))))))))))))))))))))))))))))))))))))))))))))))))))))))))))))))))))))))))))))))))))))))))))))))))))))))))))))))))))))))))))))))))))))))))))))))))))))))))))))))))))))))))))))))))))))))))))))))))))))))))))))))))))))))))))))))))))))))))))))))))))))))))))))))))))))))))))))))))))))))))))))))))))))))))))))))))))))))))))))))))
(check-sat)
